unsat
(:binary-propagations  35
 :conflicts            1
 :final-checks         1
 :max-generation       1
 :max-memory           23.07
 :memory               20.83
 :mk-bool-var          372
 :mk-clause            123
 :mk-clause-binary     391
 :num-allocs           4264652
 :num-checks           1
 :propagations         35
 :quant-instantiations 50
 :restarts             1
 :rlimit-count         40062
 :time                 0.01)
